.Version 9.2.2 of ABINIT

 ABINIT is a project of the Universite Catholique de Louvain,
 Corning Inc. and other collaborators, see ~abinit/doc/developers/contributors.txt .
 acknowledgments of the ABINIT effort.

.Starting date : Tue  2 Feb 2021.
- ( at 19h19 )

- input  file    -> BFO_dmft_pola1.in
- output file    -> BFO_dmft_pola1.out
- root for input  files -> BFO_pola1i
- root for output files -> BFO_pola1o

- inpspheads : Reading pseudopotential header in XML form from
-   Bi.LDA_PW-JTH.xml
- inpspheads : Reading pseudopotential header in XML form from
-   Fe.LDA_PW-JTH.xml
- inpspheads : Reading pseudopotential header in XML form from
-   O.LDA_PW-JTH.xml

 DATASET    1 : magnetic group, Shubnikov type III
 Fedorov space group R3 c (#161); Bravais hR (rhombohedral)
 Magnetic point group 3m' (# 31)
     intxc =       0    ionmov =       0      iscf =      17    lmnmax =      18
     lnmax =       6     mgfft =      48  mpssoang =       3    mqgrid =    3001
     natom =      10  nloc_mem =       2    nspden =       2   nspinor =       1
    nsppol =       2      nsym =       3    n1xccc =       1    ntypat =       3
    occopt =       3   xclevel =       1
-    mband =          81        mffmem =           1         mkmem =           2
       mpw =        4537          nfft =      110592          nkpt =          38
Pmy_natom=         1
 PAW method is used; the additional fine FFT grid is defined by:
   mgfftf=        60    nfftf =    216000
  Rough estimation (10% accuracy) of disk space for files :

 DATASET    2 : magnetic group, Shubnikov type III
 Fedorov space group R3 c (#161); Bravais hR (rhombohedral)
 Magnetic point group 3m' (# 31)
     intxc =       0    ionmov =       0      iscf =      17    lmnmax =      18
     lnmax =       6     mgfft =      48  mpssoang =       3    mqgrid =    3001
     natom =      10  nloc_mem =       2    nspden =       2   nspinor =       1
    nsppol =       2      nsym =       3    n1xccc =       1    ntypat =       3
    occopt =       3   xclevel =       1
-    mband =          49        mffmem =           1         mkmem =           2
       mpw =        4537          nfft =      110592          nkpt =          38
 PAW method is used; the additional fine FFT grid is defined by:
   mgfftf=        60    nfftf =    216000
  Rough estimation (10% accuracy) of disk space for files :

------------- Echo of variables that govern the present computation ------------
-
- outvars: echo of selected default values
-   iomode0 =  0 , fftalg0 =512 , wfoptalg0 = 10
-
- outvars: echo of global parameters not present in the input file
-  max_nthreads =    0
-
 -outvars: echo values of preprocessed input variables --------
            acell      1.0384762725E+01  1.0384762725E+01  1.0384762725E+01 Bohr
              amu      2.08980370E+02  5.58470000E+01  1.59994000E+01
         berryopt1          0
         berryopt2          4
          dilatmx      1.10000000E+00
        dmatpuopt           1
        dmftbandf1          0
        dmftbandf2         49
        dmftbandi1          0
        dmftbandi2         30
        dmft_mxsf1     3.0000000000E-01
        dmft_mxsf2     7.0000000000E-01
        dmft_nwli1          0
        dmft_nwli2     100000
        dmft_nwlo1          0
        dmft_nwlo2        100
        dmft_rslf1          0
        dmft_rslf2          1
        dmft_solv1          5
        dmft_solv2          2
             ecut      2.00000000E+01 Hartree
           ecutsm      5.00000000E-01 Hartree
-          fftalg         512
           getwfk          -1
              ixc       -1012
           jdtset        1    2
              kpt      8.33333333E-02  8.33333333E-02  8.33333333E-02
                       2.50000000E-01  8.33333333E-02  8.33333333E-02
                       4.16666667E-01  8.33333333E-02  8.33333333E-02
                      -4.16666667E-01  8.33333333E-02  8.33333333E-02
                      -2.50000000E-01  8.33333333E-02  8.33333333E-02
                      -8.33333333E-02  8.33333333E-02  8.33333333E-02
                       2.50000000E-01  2.50000000E-01  8.33333333E-02
                       4.16666667E-01  2.50000000E-01  8.33333333E-02
                      -4.16666667E-01  2.50000000E-01  8.33333333E-02
                      -2.50000000E-01  2.50000000E-01  8.33333333E-02
                      -8.33333333E-02  2.50000000E-01  8.33333333E-02
                       2.50000000E-01  4.16666667E-01  8.33333333E-02
                       4.16666667E-01  4.16666667E-01  8.33333333E-02
                      -4.16666667E-01  4.16666667E-01  8.33333333E-02
                      -2.50000000E-01  4.16666667E-01  8.33333333E-02
                      -8.33333333E-02  4.16666667E-01  8.33333333E-02
                       2.50000000E-01 -4.16666667E-01  8.33333333E-02
                       4.16666667E-01 -4.16666667E-01  8.33333333E-02
                      -4.16666667E-01 -4.16666667E-01  8.33333333E-02
                      -2.50000000E-01 -4.16666667E-01  8.33333333E-02
                      -8.33333333E-02 -4.16666667E-01  8.33333333E-02
                       2.50000000E-01 -2.50000000E-01  8.33333333E-02
                       4.16666667E-01 -2.50000000E-01  8.33333333E-02
                      -4.16666667E-01 -2.50000000E-01  8.33333333E-02
                      -2.50000000E-01 -2.50000000E-01  8.33333333E-02
                      -8.33333333E-02 -2.50000000E-01  8.33333333E-02
                       2.50000000E-01  2.50000000E-01  2.50000000E-01
                       4.16666667E-01  2.50000000E-01  2.50000000E-01
                      -4.16666667E-01  2.50000000E-01  2.50000000E-01
                      -2.50000000E-01  2.50000000E-01  2.50000000E-01
                       4.16666667E-01  4.16666667E-01  2.50000000E-01
                      -4.16666667E-01  4.16666667E-01  2.50000000E-01
                      -2.50000000E-01  4.16666667E-01  2.50000000E-01
                       4.16666667E-01 -4.16666667E-01  2.50000000E-01
                      -4.16666667E-01 -4.16666667E-01  2.50000000E-01
                      -2.50000000E-01 -4.16666667E-01  2.50000000E-01
                       4.16666667E-01  4.16666667E-01  4.16666667E-01
                      -4.16666667E-01  4.16666667E-01  4.16666667E-01
         kptrlatt        6    0    0      0    6    0      0    0    6
          kptrlen      6.22898154E+01
            lpawu          -1       2      -1
P           mkmem           2
            natom          10
            nband1         81
            nband2         49
           ndtset           2
            ngfft          48      48      48
          ngfftdg          60      60      60
             nkpt          38
            nline1          4
            nline2         16
           nnsclo1          0
           nnsclo2         30
           nspden           2
           nsppol           2
            nstep         100
             nsym           3
           ntypat           3
              occ1     1.000000  1.000000  1.000000  1.000000  1.000000  1.000000
                       1.000000  1.000000  1.000000  1.000000  1.000000  1.000000
                       1.000000  1.000000  1.000000  1.000000  1.000000  1.000000
                       1.000000  1.000000  1.000000  1.000000  1.000000  1.000000
                       1.000000  1.000000  1.000000  1.000000  1.000000  1.000000
                       1.000000  1.000000  1.000000  1.000000  1.000000  1.000000
                       1.000000  1.000000  1.000000  1.000000  1.000000  1.000000
                       1.000000  1.000000  1.000000  1.000000  1.000000  1.000000
                       1.000000  0.000000  0.000000  0.000000  0.000000  0.000000
                       0.000000  0.000000  0.000000  0.000000  0.000000  0.000000
                       0.000000  0.000000  0.000000  0.000000  0.000000  0.000000
                       0.000000  0.000000  0.000000  0.000000  0.000000  0.000000
                       0.000000  0.000000  0.000000  0.000000  0.000000  0.000000
                       0.000000  0.000000  0.000000
                       1.000000  1.000000  1.000000  1.000000  1.000000  1.000000
                       1.000000  1.000000  1.000000  1.000000  1.000000  1.000000
                       1.000000  1.000000  1.000000  1.000000  1.000000  1.000000
                       1.000000  1.000000  1.000000  1.000000  1.000000  1.000000
                       1.000000  1.000000  1.000000  1.000000  1.000000  1.000000
                       1.000000  1.000000  1.000000  1.000000  1.000000  1.000000
                       1.000000  1.000000  1.000000  1.000000  1.000000  1.000000
                       1.000000  1.000000  1.000000  1.000000  1.000000  1.000000
                       1.000000  0.000000  0.000000  0.000000  0.000000  0.000000
                       0.000000  0.000000  0.000000  0.000000  0.000000  0.000000
                       0.000000  0.000000  0.000000  0.000000  0.000000  0.000000
                       0.000000  0.000000  0.000000  0.000000  0.000000  0.000000
                       0.000000  0.000000  0.000000  0.000000  0.000000  0.000000
                       0.000000  0.000000  0.000000
                       1.000000  1.000000  1.000000  1.000000  1.000000  1.000000
                       1.000000  1.000000  1.000000  1.000000  1.000000  1.000000
                       1.000000  1.000000  1.000000  1.000000  1.000000  1.000000
                       1.000000  1.000000  1.000000  1.000000  1.000000  1.000000
                       1.000000  1.000000  1.000000  1.000000  1.000000  1.000000
                       1.000000  1.000000  1.000000  1.000000  1.000000  1.000000
                       1.000000  1.000000  1.000000  1.000000  1.000000  1.000000
                       1.000000  1.000000  1.000000  1.000000  1.000000  1.000000
                       1.000000  0.000000  0.000000  0.000000  0.000000  0.000000
                       0.000000  0.000000  0.000000  0.000000  0.000000  0.000000
                       0.000000  0.000000  0.000000  0.000000  0.000000  0.000000
                       0.000000  0.000000  0.000000  0.000000  0.000000  0.000000
                       0.000000  0.000000  0.000000  0.000000  0.000000  0.000000
                       0.000000  0.000000  0.000000
                       1.000000  1.000000  1.000000  1.000000  1.000000  1.000000
                       1.000000  1.000000  1.000000  1.000000  1.000000  1.000000
                       1.000000  1.000000  1.000000  1.000000  1.000000  1.000000
                       1.000000  1.000000  1.000000  1.000000  1.000000  1.000000
                       1.000000  1.000000  1.000000  1.000000  1.000000  1.000000
                       1.000000  1.000000  1.000000  1.000000  1.000000  1.000000
                       1.000000  1.000000  1.000000  1.000000  1.000000  1.000000
                       1.000000  1.000000  1.000000  1.000000  1.000000  1.000000
                       1.000000  0.000000  0.000000  0.000000  0.000000  0.000000
                       0.000000  0.000000  0.000000  0.000000  0.000000  0.000000
[...]
                       1.000000  1.000000  1.000000  1.000000  1.000000  0.999353
                       0.995274  0.002074  0.001153  0.000115  0.000000  0.000000
                       0.000000  0.000000  0.000000  0.000000  0.000000  0.000000
                       0.000000  0.000000  0.000000  0.000000  0.000000  0.000000
                       0.000000  0.000000  0.000000  0.000000  0.000000  0.000000
                       0.000000  0.000000  0.000000  0.000000  0.000000  0.000000
                       0.000000  0.000000  0.000000
                       1.000000  1.000000  1.000000  1.000000  1.000000  1.000000
                       1.000000  1.000000  1.000000  1.000000  1.000000  1.000000
                       1.000000  1.000000  1.000000  1.000000  1.000000  1.000000
                       1.000000  1.000000  1.000000  1.000000  1.000000  1.000000
                       1.000000  1.000000  1.000000  1.000000  1.000000  1.000000
                       1.000000  1.000000  1.000000  1.000000  1.000000  1.000000
                       1.000000  1.000000  1.000000  1.000000  1.000000  1.000000
                       1.000000  1.000000  1.000000  1.000000  0.999999  0.999593
                       0.996259  0.002241  0.000565  0.000051  0.000000  0.000000
                       0.000000  0.000000  0.000000  0.000000  0.000000  0.000000
                       0.000000  0.000000  0.000000  0.000000  0.000000  0.000000
                       0.000000  0.000000  0.000000  0.000000  0.000000  0.000000
                       0.000000  0.000000  0.000000  0.000000  0.000000  0.000000
                       0.000000  0.000000  0.000000
                       1.000000  1.000000  1.000000  1.000000  1.000000  1.000000
                       1.000000  1.000000  1.000000  1.000000  1.000000  1.000000
                       1.000000  1.000000  1.000000  1.000000  1.000000  1.000000
                       1.000000  1.000000  1.000000  1.000000  1.000000  1.000000
                       1.000000  1.000000  1.000000  1.000000  1.000000  1.000000
[...]
                       0.000000  0.000000  0.000000
                       1.000000  1.000000  1.000000  1.000000  1.000000  1.000000
                       1.000000  1.000000  1.000000  1.000000  1.000000  1.000000
                       1.000000  1.000000  1.000000  1.000000  1.000000  1.000000
                       1.000000  1.000000  1.000000  1.000000  1.000000  1.000000
                       1.000000  1.000000  1.000000  1.000000  1.000000  1.000000
                       1.000000  1.000000  1.000000  1.000000  1.000000  1.000000
                       1.000000  1.000000  1.000000  1.000000  1.000000  1.000000
                       1.000000  1.000000  1.000000  1.000000  0.999993  0.995815
                       0.991282  0.006296  0.000900  0.000534  0.000000  0.000000
                       0.000000  0.000000  0.000000  0.000000  0.000000  0.000000
                       0.000000  0.000000  0.000000  0.000000  0.000000  0.000000
                       0.000000  0.000000  0.000000  0.000000  0.000000  0.000000
                       0.000000  0.000000  0.000000  0.000000  0.000000  0.000000
                       0.000000  0.000000  0.000000
              occ2     1.000000  1.000000  1.000000  1.000000  1.000000  1.000000
                       1.000000  1.000000  1.000000  1.000000  1.000000  1.000000
                       1.000000  1.000000  1.000000  1.000000  1.000000  1.000000
                       1.000000  1.000000  1.000000  1.000000  1.000000  1.000000
                       1.000000  1.000000  1.000000  1.000000  1.000000  0.893324
                       0.893325  0.893326  0.893326  0.893327  0.893328  0.893335
                       0.893335  0.893336  0.893336  0.893336  0.893340  0.893340
                       0.893340  0.893341  0.893341  0.893342  0.893345  0.893346
                       0.893347
                       1.000000  1.000000  1.000000  1.000000  1.000000  1.000000
                       1.000000  1.000000  1.000000  1.000000  1.000000  1.000000
                       1.000000  1.000000  1.000000  1.000000  1.000000  1.000000
                       1.000000  1.000000  1.000000  1.000000  1.000000  1.000000
                       1.000000  1.000000  1.000000  1.000000  1.000000  0.893325
                       0.893325  0.893326  0.893327  0.893328  0.893330  0.893334
                       0.893335  0.893335  0.893336  0.893337  0.893339  0.893340
                       0.893340  0.893340  0.893341  0.893343  0.893345  0.893347
                       0.893348
                       1.000000  1.000000  1.000000  1.000000  1.000000  1.000000
                       1.000000  1.000000  1.000000  1.000000  1.000000  1.000000
                       1.000000  1.000000  1.000000  1.000000  1.000000  1.000000
                       1.000000  1.000000  1.000000  1.000000  1.000000  1.000000
                       1.000000  1.000000  1.000000  1.000000  1.000000  0.893325
                       0.893325  0.893327  0.893327  0.893328  0.893332  0.893332
                       0.893334  0.893335  0.893336  0.893337  0.893338  0.893339
                       0.893339  0.893340  0.893341  0.893343  0.893344  0.893348
                       0.893348
                       1.000000  1.000000  1.000000  1.000000  1.000000  1.000000
                       1.000000  1.000000  1.000000  1.000000  1.000000  1.000000
                       1.000000  1.000000  1.000000  1.000000  1.000000  1.000000
                       1.000000  1.000000  1.000000  1.000000  1.000000  1.000000
                       1.000000  1.000000  1.000000  1.000000  1.000000  0.893325
                       0.893326  0.893327  0.893328  0.893330  0.893330  0.893331
                       0.893334  0.893336  0.893337  0.893337  0.893338  0.893338
                       0.893339  0.893340  0.893341  0.893343  0.893345  0.893347
                       0.893348
                       1.000000  1.000000  1.000000  1.000000  1.000000  1.000000
                       1.000000  1.000000  1.000000  1.000000  1.000000  1.000000
                       1.000000  1.000000  1.000000  1.000000  1.000000  1.000000
                       1.000000  1.000000  1.000000  1.000000  1.000000  1.000000
                       1.000000  1.000000  1.000000  1.000000  1.000000  0.893324
                       0.893325  0.893327  0.893327  0.893329  0.893331  0.893333
                       0.893334  0.893335  0.893337  0.893338  0.893338  0.893339
                       0.893339  0.893340  0.893341  0.893343  0.893345  0.893347
                       0.893348
                       1.000000  1.000000  1.000000  1.000000  1.000000  1.000000
                       1.000000  1.000000  1.000000  1.000000  1.000000  1.000000
                       1.000000  1.000000  1.000000  1.000000  1.000000  1.000000
                       1.000000  1.000000  1.000000  1.000000  1.000000  1.000000
                       1.000000  1.000000  1.000000  1.000000  1.000000  0.893325
                       0.893325  0.893325  0.893326  0.893328  0.893329  0.893334
                       0.893335  0.893336  0.893336  0.893337  0.893339  0.893340
                       0.893340  0.893341  0.893341  0.893342  0.893345  0.893346
                       0.893347
                       1.000000  1.000000  1.000000  1.000000  1.000000  1.000000
                       1.000000  1.000000  1.000000  1.000000  1.000000  1.000000
                       1.000000  1.000000  1.000000  1.000000  1.000000  1.000000
                       1.000000  1.000000  1.000000  1.000000  1.000000  1.000000
                       1.000000  1.000000  1.000000  1.000000  1.000000  0.893325
                       0.893325  0.893326  0.893327  0.893328  0.893330  0.893334
                       0.893335  0.893335  0.893336  0.893336  0.893338  0.893340
[...]
                       1.000000  1.000000  1.000000  1.000000  1.000000  1.000000
                       1.000000  1.000000  1.000000  1.000000  1.000000  0.893325
                       0.893326  0.893326  0.893327  0.893328  0.893331  0.893331
                       0.893333  0.893335  0.893336  0.893336  0.893338  0.893338
                       0.893338  0.893340  0.893341  0.893344  0.893347  0.893348
                       0.893349
                       1.000000  1.000000  1.000000  1.000000  1.000000  1.000000
                       1.000000  1.000000  1.000000  1.000000  1.000000  1.000000
                       1.000000  1.000000  1.000000  1.000000  1.000000  1.000000
                       1.000000  1.000000  1.000000  1.000000  1.000000  1.000000
                       1.000000  1.000000  1.000000  1.000000  1.000000  0.893325
                       0.893326  0.893326  0.893329  0.893329  0.893331  0.893331
                       0.893334  0.893335  0.893335  0.893337  0.893337  0.893337
                       0.893339  0.893341  0.893341  0.893344  0.893346  0.893348
                       0.893349
           occopt           3
        optforces1          2
        optforces2          0
-      paral_atom1          1
-      paral_atom2          0
        pawecutdg      3.00000000E+01 Hartree
        ptgroupma          31
            rfdir1          0       0       0
            rfdir2          1       1       1
            rprim      5.7717643067E-01  0.0000000000E+00  8.1661947557E-01
                      -2.8858821534E-01  4.9984945143E-01  8.1661947557E-01
                      -2.8858821534E-01 -4.9984945143E-01  8.1661947557E-01
           shiftk      5.00000000E-01  5.00000000E-01  5.00000000E-01
          spgroup         161
           spinat      0.0000000000E+00  0.0000000000E+00  0.0000000000E+00
                       0.0000000000E+00  0.0000000000E+00  0.0000000000E+00
                       0.0000000000E+00  0.0000000000E+00  9.0000000000E+00
                       0.0000000000E+00  0.0000000000E+00 -9.0000000000E+00
                       0.0000000000E+00  0.0000000000E+00  0.0000000000E+00
                       0.0000000000E+00  0.0000000000E+00  0.0000000000E+00
                       0.0000000000E+00  0.0000000000E+00  0.0000000000E+00
                       0.0000000000E+00  0.0000000000E+00  0.0000000000E+00
                       0.0000000000E+00  0.0000000000E+00  0.0000000000E+00
                       0.0000000000E+00  0.0000000000E+00  0.0000000000E+00
           strten1    -2.9270614047E-05 -2.9270614159E-05 -2.7037091594E-05
                       0.0000000000E+00  8.9848934118E-14  0.0000000000E+00
           strten2     2.3180073036E-03  2.3180073035E-03  2.2802135634E-03
                       0.0000000000E+00  9.9429768133E-14  0.0000000000E+00
        symmorphi           0
           symrel      1  0  0   0  1  0   0  0  1       0  0  1   1  0  0   0  1  0
                       0  1  0   0  0  1   1  0  0
           toldfe      6.70000000E-04 Hartree
           tolsym1     1.00000000E-05
           tolsym2     1.00000000E-08
           tsmear      3.80017850E-03 Hartree
            typat      1  1  2  2  3  3  3  3  3  3
            upawu      0.00000000E+00  3.67493254E-02  0.00000000E+00 Hartree
          usedmft1          0
          usedmft2          1
          usepawu1          1
          usepawu2         10
           useylm           1
              wtk        0.00926    0.02778    0.02778    0.02778    0.02778    0.02778
                         0.02778    0.02778    0.02778    0.02778    0.02778    0.02778
                         0.02778    0.02778    0.02778    0.02778    0.02778    0.02778
                         0.02778    0.02778    0.02778    0.02778    0.02778    0.02778
                         0.02778    0.02778    0.00926    0.02778    0.02778    0.02778
                         0.02778    0.02778    0.02778    0.02778    0.02778    0.02778
                         0.00926    0.02778
           xangst1     2.5622747346E-13  1.5318158158E-16 -6.2793789388E-02
                      -2.7220612323E-11  1.5126937994E-18  6.6686574057E+00
                      -1.2275362599E-11  1.7864257991E-16  3.0072537685E+00
                      -3.9752076966E-11 -8.8194811396E-18  9.7387049636E+00
                      -1.0947285837E+00 -1.1003641032E+00  8.3549912716E+00
                      -1.9914808098E+00  1.2486177385E+00  6.1111742065E+00
                      -8.5594276268E-02 -2.3489818417E+00  6.1111742065E+00
                       2.0770750860E+00  1.1003641032E+00  6.1111742065E+00
                      -4.0557897499E-01  1.4982448153E+00  8.3549912716E+00
                       1.5003075586E+00 -3.9788071210E-01  8.3549912716E+00
           xangst2     2.5631320358E-13  1.6914647215E-19 -6.2793789358E-02
                      -2.7220672864E-11  7.4864032752E-17  6.6686574057E+00
                      -1.2275201080E-11  1.9881442796E-17  3.0072537685E+00
                      -3.9752135897E-11  2.9614352413E-16  9.7387049636E+00
                      -1.0947285837E+00 -1.1003641032E+00  8.3549912716E+00
                      -1.9914808098E+00  1.2486177385E+00  6.1111742065E+00
                      -8.5594276268E-02 -2.3489818417E+00  6.1111742065E+00
                       2.0770750860E+00  1.1003641032E+00  6.1111742065E+00
                      -4.0557897499E-01  1.4982448153E+00  8.3549912716E+00
                       1.5003075586E+00 -3.9788071210E-01  8.3549912716E+00
            xcart1     4.8419975256E-13  2.8947123778E-16 -1.1866306479E-01
                      -5.1439502460E-11  2.8585770037E-18  1.2601936171E+01
                      -2.3197073493E-11  3.3758555171E-16  5.6828860346E+00
                      -7.5120538679E-11 -1.6666403988E-17  1.8403485270E+01
                      -2.0687372130E+00 -2.0793868015E+00  1.5788645346E+01
                      -3.7633533295E+00  2.3595455704E+00  1.1548445601E+01
                      -1.6174974069E-01 -4.4389323719E+00  1.1548445601E+01
                       3.9251030700E+00  2.0793868015E+00  1.1548445601E+01
                      -7.6643318798E-01  2.8312723809E+00  1.5788645346E+01
                       2.8351704008E+00 -7.5188557942E-01  1.5788645346E+01
            xcart2     4.8436175901E-13  3.1964050872E-19 -1.1866306473E-01
                      -5.1439616866E-11  1.4147251911E-16  1.2601936171E+01
                      -2.3196768267E-11  3.7570482011E-17  5.6828860346E+00
                      -7.5120650043E-11  5.5963015663E-16  1.8403485270E+01
                      -2.0687372130E+00 -2.0793868015E+00  1.5788645346E+01
                      -3.7633533295E+00  2.3595455704E+00  1.1548445601E+01
                      -1.6174974069E-01 -4.4389323719E+00  1.1548445601E+01
                       3.9251030700E+00  2.0793868015E+00  1.1548445601E+01
                      -7.6643318798E-01  2.8312723809E+00  1.5788645346E+01
                       2.8351704008E+00 -7.5188557942E-01  1.5788645346E+01
             xred1    -4.6642089178E-03 -4.6642089178E-03 -4.6642089178E-03
                       4.9533579108E-01  4.9533579108E-01  4.9533579108E-01
                       2.2337336195E-01  2.2337336195E-01  2.2337336195E-01
                       7.2337336195E-01  7.2337336195E-01  7.2337336195E-01
                       3.9049770438E-01  5.3534685657E-01  9.3593628602E-01
                       3.5346856570E-02  8.9049770438E-01  4.3593628602E-01
                       4.3593628602E-01  3.5346856570E-02  8.9049770438E-01
                       8.9049770438E-01  4.3593628602E-01  3.5346856570E-02
                       5.3534685657E-01  9.3593628602E-01  3.9049770438E-01
                       9.3593628602E-01  3.9049770438E-01  5.3534685657E-01
             xred2    -4.6642089156E-03 -4.6642089156E-03 -4.6642089156E-03
                       4.9533579108E-01  4.9533579108E-01  4.9533579108E-01
                       2.2337336195E-01  2.2337336195E-01  2.2337336195E-01
                       7.2337336195E-01  7.2337336195E-01  7.2337336195E-01
                       3.9049770438E-01  5.3534685657E-01  9.3593628602E-01
                       3.5346856570E-02  8.9049770438E-01  4.3593628602E-01
                       4.3593628602E-01  3.5346856570E-02  8.9049770438E-01
                       8.9049770438E-01  4.3593628602E-01  3.5346856570E-02
                       5.3534685657E-01  9.3593628602E-01  3.9049770438E-01
                       9.3593628602E-01  3.9049770438E-01  5.3534685657E-01
            znucl       83.00000   26.00000    8.00000

- Timing analysis has been suppressed with timopt=0

 Suggested references for the acknowledgment of ABINIT usage.

 Calculation completed.
.Delivered   2 WARNINGs and   4 COMMENTs to log file.