.Version 9.2.2 of ABINIT

 ABINIT is a project of the Universite Catholique de Louvain,
 Corning Inc. and other collaborators, see ~abinit/doc/developers/contributors.txt .
 acknowledgments of the ABINIT effort.

.Starting date : Wed 27 Jan 2021.
- ( at 13h31 )

- input  file    -> BFO_relax.in
- output file    -> BFO_relax.out
- root for input  files -> BFOrelaxi
- root for output files -> BFO_relaxo

- inpspheads : Reading pseudopotential header in XML form from
-   Bi.LDA_PW-JTH.xml
- inpspheads : Reading pseudopotential header in XML form from
-   Fe.LDA_PW-JTH.xml
- inpspheads : Reading pseudopotential header in XML form from
-   O.LDA_PW-JTH.xml

 DATASET    1 : magnetic group, Shubnikov type III
 Fedorov space group R3 c (#161); Bravais hR (rhombohedral)
 Magnetic point group 3m' (# 31)
     intxc =       0    ionmov =      22      iscf =      17    lmnmax =      18
     lnmax =       6     mgfft =      48  mpssoang =       3    mqgrid =    3001
     natom =      10  nloc_mem =       2    nspden =       2   nspinor =       1
    nsppol =       2      nsym =       6    n1xccc =       1    ntypat =       3
    occopt =       7   xclevel =       1
-    mband =          81        mffmem =           1         mkmem =           1
       mpw =        4234          nfft =      110592          nkpt =          14
Pmy_natom=         1
 PAW method is used; the additional fine FFT grid is defined by:
   mgfftf=        64    nfftf =    262144
  Rough estimation (10% accuracy) of disk space for files :

[...]

 DATASET   11 : magnetic group, Shubnikov type III
 Fedorov space group R3 c (#161); Bravais hR (rhombohedral)
 Magnetic point group 3m' (# 31)
     intxc =       0    ionmov =      22      iscf =      17    lmnmax =      18
     lnmax =       6     mgfft =      48  mpssoang =       3    mqgrid =    3001
     natom =      10  nloc_mem =       2    nspden =       2   nspinor =       1
    nsppol =       2      nsym =       6    n1xccc =       1    ntypat =       3
    occopt =       7   xclevel =       1
-    mband =          81        mffmem =           1         mkmem =           1
       mpw =        4234          nfft =      110592          nkpt =          14
Pmy_natom=         1
 PAW method is used; the additional fine FFT grid is defined by:
   mgfftf=        64    nfftf =    262144
  Rough estimation (10% accuracy) of disk space for files :

------------- Echo of variables that govern the present computation ------------
-
- outvars: echo of selected default values
-   iomode0 =  0 , fftalg0 =512 , wfoptalg0 = 10
-
- outvars: echo of global parameters not present in the input file
-  max_nthreads =    0
-
 -outvars: echo values of preprocessed input variables --------
            acell      1.0578138687E+01  1.0578138687E+01  1.0578138687E+01 Bohr
              amu      2.08980370E+02  5.58470000E+01  1.59994000E+01
           diemac      1.20000000E+01
          dilatmx      1.05000000E+00
             ecut      2.00000000E+01 Hartree
           ecutsm      5.00000000E-01 Hartree
-          fftalg         112
           getwfk          -1
           ionmov          22
           istwfk        1    0    1    0    0    0    0    1    0    0
                         0    0    0    1
              ixc       -1012
           jdtset        1    2    3    4    5    6    7    8    9   10
                        11
              kpt      0.00000000E+00  0.00000000E+00  0.00000000E+00
                       2.50000000E-01  0.00000000E+00  0.00000000E+00
                       5.00000000E-01  0.00000000E+00  0.00000000E+00
                       2.50000000E-01  2.50000000E-01  0.00000000E+00
                       5.00000000E-01  2.50000000E-01  0.00000000E+00
                      -2.50000000E-01  2.50000000E-01  0.00000000E+00
                       2.50000000E-01  5.00000000E-01  0.00000000E+00
                       5.00000000E-01  5.00000000E-01  0.00000000E+00
                       2.50000000E-01  2.50000000E-01  2.50000000E-01
                       5.00000000E-01  2.50000000E-01  2.50000000E-01
                      -2.50000000E-01  2.50000000E-01  2.50000000E-01
                       5.00000000E-01  5.00000000E-01  2.50000000E-01
                      -2.50000000E-01  5.00000000E-01  2.50000000E-01
                       5.00000000E-01  5.00000000E-01  5.00000000E-01
         kptrlatt        4    0    0      0    4    0      0    0    4
          kptrlen      4.23125547E+01
            lpawu          -1       2      -1
P           mkmem           1
            natom          10
            nband          81
           ndtset          11
            ngfft          48      48      48
          ngfftdg          64      64      64
             nkpt          14
           nspden           2
           nsppol           2
            nstep         100
             nsym           6
            ntime          30
           ntypat           3
              occ      1.000000  1.000000  1.000000  1.000000  1.000000  1.000000
                       1.000000  1.000000  1.000000  1.000000  1.000000  1.000000
                       1.000000  1.000000  1.000000  1.000000  1.000000  1.000000
                       1.000000  1.000000  1.000000  1.000000  1.000000  1.000000
                       1.000000  1.000000  1.000000  1.000000  1.000000  1.000000
                       1.000000  1.000000  1.000000  1.000000  1.000000  1.000000
                       1.000000  1.000000  1.000000  1.000000  1.000000  1.000000
                       1.000000  1.000000  1.000000  1.000000  1.000000  1.000000
                       1.000000  0.000000  0.000000  0.000000  0.000000  0.000000
                       0.000000  0.000000  0.000000  0.000000  0.000000  0.000000
                       0.000000  0.000000  0.000000  0.000000  0.000000  0.000000
                       0.000000  0.000000  0.000000  0.000000  0.000000  0.000000
                       0.000000  0.000000  0.000000  0.000000  0.000000  0.000000
                       0.000000  0.000000  0.000000
                       1.000000  1.000000  1.000000  1.000000  1.000000  1.000000
                       1.000000  1.000000  1.000000  1.000000  1.000000  1.000000
                       1.000000  1.000000  1.000000  1.000000  1.000000  1.000000
                       1.000000  1.000000  1.000000  1.000000  1.000000  1.000000
                       1.000000  1.000000  1.000000  1.000000  1.000000  1.000000
                       1.000000  1.000000  1.000000  1.000000  1.000000  1.000000
                       1.000000  1.000000  1.000000  1.000000  1.000000  1.000000
                       1.000000  1.000000  1.000000  1.000000  1.000000  1.000000
                       1.000000  0.000000  0.000000  0.000000  0.000000  0.000000
                       0.000000  0.000000  0.000000  0.000000  0.000000  0.000000
                       0.000000  0.000000  0.000000  0.000000  0.000000  0.000000
                       0.000000  0.000000  0.000000  0.000000  0.000000  0.000000
                       0.000000  0.000000  0.000000  0.000000  0.000000  0.000000
                       0.000000  0.000000  0.000000
                       1.000000  1.000000  1.000000  1.000000  1.000000  1.000000
                       1.000000  1.000000  1.000000  1.000000  1.000000  1.000000
                       1.000000  1.000000  1.000000  1.000000  1.000000  1.000000
                       1.000000  1.000000  1.000000  1.000000  1.000000  1.000000
                       1.000000  1.000000  1.000000  1.000000  1.000000  1.000000
                       1.000000  1.000000  1.000000  1.000000  1.000000  1.000000
                       1.000000  1.000000  1.000000  1.000000  1.000000  1.000000
                       1.000000  1.000000  1.000000  1.000000  1.000000  1.000000
                       1.000000  0.000000  0.000000  0.000000  0.000000  0.000000
                       0.000000  0.000000  0.000000  0.000000  0.000000  0.000000
                       0.000000  0.000000  0.000000  0.000000  0.000000  0.000000
                       0.000000  0.000000  0.000000  0.000000  0.000000  0.000000
                       0.000000  0.000000  0.000000  0.000000  0.000000  0.000000
                       0.000000  0.000000  0.000000
                       1.000000  1.000000  1.000000  1.000000  1.000000  1.000000
                       1.000000  1.000000  1.000000  1.000000  1.000000  1.000000
                       1.000000  1.000000  1.000000  1.000000  1.000000  1.000000
                       1.000000  1.000000  1.000000  1.000000  1.000000  1.000000
                       1.000000  1.000000  1.000000  1.000000  1.000000  1.000000
                       1.000000  1.000000  1.000000  1.000000  1.000000  1.000000
                       1.000000  1.000000  1.000000  1.000000  1.000000  1.000000
                       1.000000  1.000000  1.000000  1.000000  1.000000  1.000000
                       1.000000  0.000000  0.000000  0.000000  0.000000  0.000000
                       0.000000  0.000000  0.000000  0.000000  0.000000  0.000000
                       0.000000  0.000000  0.000000  0.000000  0.000000  0.000000
                       0.000000  0.000000  0.000000  0.000000  0.000000  0.000000
                       0.000000  0.000000  0.000000  0.000000  0.000000  0.000000
                       0.000000  0.000000  0.000000
                       1.000000  1.000000  1.000000  1.000000  1.000000  1.000000
                       1.000000  1.000000  1.000000  1.000000  1.000000  1.000000
                       1.000000  1.000000  1.000000  1.000000  1.000000  1.000000
                       1.000000  1.000000  1.000000  1.000000  1.000000  1.000000
                       1.000000  1.000000  1.000000  1.000000  1.000000  1.000000
[...]
                       0.000000  0.000000  0.000000
                       1.000000  1.000000  1.000000  1.000000  1.000000  1.000000
                       1.000000  1.000000  1.000000  1.000000  1.000000  1.000000
                       1.000000  1.000000  1.000000  1.000000  1.000000  1.000000
                       1.000000  1.000000  1.000000  1.000000  1.000000  1.000000
                       1.000000  1.000000  1.000000  1.000000  1.000000  1.000000
                       1.000000  1.000000  1.000000  1.000000  1.000000  1.000000
                       1.000000  1.000000  1.000000  1.000000  1.000000  1.000000
                       1.000000  1.000000  1.000000  1.000000  1.000000  1.000000
                       1.000000  0.000000  0.000000  0.000000  0.000000  0.000000
                       0.000000  0.000000  0.000000  0.000000  0.000000  0.000000
                       0.000000  0.000000  0.000000  0.000000  0.000000  0.000000
                       0.000000  0.000000  0.000000  0.000000  0.000000  0.000000
                       0.000000  0.000000  0.000000  0.000000  0.000000  0.000000
                       0.000000  0.000000  0.000000
           occopt           7
          optcell           2
        optforces           1
        pawecutdg      4.00000000E+01 Hartree
        ptgroupma          31
[...]
                       3.9285170465E-16  5.2564916290E-17  1.8255098904E+01
                      -2.0542153630E+00 -2.0772852542E+00  1.5654851059E+01
                      -3.7604308177E+00  2.3586867263E+00  1.1452312200E+01
                      -1.6246721568E-01 -4.4359719804E+00  1.1452312200E+01
                       3.9228980334E+00  2.0772852542E+00  1.1452312200E+01
                      -7.7187411951E-01  2.8176453163E+00  1.5654851059E+01
                       2.8260894825E+00 -7.4036006211E-01  1.5654851059E+01
            xcart2    -2.4026577647E-17 -1.0899698022E-18 -1.1866306473E-01
                      -2.2149654795E-16 -1.1263992200E-16  1.2601936171E+01
                       4.1872655706E-17  6.7203450878E-17  5.6828860344E+00
                      -4.2971568002E-16  7.9070240273E-17  1.8403485270E+01
                      -2.0687372129E+00 -2.0793868015E+00  1.5788645346E+01
                      -3.7633533293E+00  2.3595455703E+00  1.1548445600E+01
                      -1.6174974061E-01 -4.4389323718E+00  1.1548445600E+01
                       3.9251030699E+00  2.0793868015E+00  1.1548445600E+01
                      -7.6643318789E-01  2.8312723809E+00  1.5788645346E+01
                       2.8351704008E+00 -7.5188557943E-01  1.5788645346E+01
            xcart3    -1.4997406780E-18  1.0622518064E-18 -1.0626719424E-01
                      -4.0487589898E-16  1.7526705728E-16  1.2671168082E+01
                      -3.4058505867E-17 -7.0116107546E-17  5.6895975154E+00
                      -7.0028711249E-16  1.0820972587E-16  1.8467032792E+01
                      -2.0711487293E+00 -2.0814291544E+00  1.5861107439E+01
                      -3.7674230638E+00  2.3625098513E+00  1.1601962347E+01
                      -1.6228201599E-01 -4.4439390057E+00  1.1601962347E+01
                       3.9297050798E+00  2.0814291544E+00  1.1601962347E+01
                      -7.6699615928E-01  2.8343819918E+00  1.5861107439E+01
                       2.8381448886E+00 -7.5295283736E-01  1.5861107439E+01
            xcart4    -1.5748797793E-17 -4.1419190917E-18 -1.0282806188E-01
                      -4.1425949651E-17  4.7070928658E-16  1.2702724226E+01
                       1.1913418096E-16  2.3655802801E-16  5.6859025306E+00
                       2.5755853232E-16  8.4710232392E-16  1.8491454818E+01
                      -2.0714064898E+00 -2.0827660198E+00  1.5900190829E+01
                      -3.7705724669E+00  2.3652910467E+00  1.1631673400E+01
                      -1.6311590032E-01 -4.4480570665E+00  1.1631673400E+01
                       3.9336883672E+00  2.0827660198E+00  1.1631673400E+01
                      -7.6802503842E-01  2.8352736516E+00  1.5900190829E+01
                       2.8394315282E+00 -7.5250763179E-01  1.5900190829E+01
            xcart5     4.9408306421E-18  3.0837340344E-18 -1.0134999598E-01
                      -8.1692632013E-16 -3.9733005813E-16  1.2724209338E+01
                      -1.6997824707E-16 -1.0493457716E-16  5.6810248647E+00
                      -1.0862607626E-15 -5.3820483635E-16  1.8506584198E+01
                      -2.0709181566E+00 -2.0839076109E+00  1.5929073669E+01
                      -3.7734434401E+00  2.3679805360E+00  1.1653887225E+01
                      -1.6400957977E-01 -4.4518881468E+00  1.1653887225E+01
                       3.9374530199E+00  2.0839076109E+00  1.1653887225E+01
                      -7.6925785184E-01  2.8354215382E+00  1.5929073669E+01
                       2.8401760085E+00 -7.5151392736E-01  1.5929073669E+01
            xcart6    -1.3889585592E-17  1.9094634515E-17 -1.0147729169E-01
                       2.4073566802E-16 -3.6766218130E-16  1.2738892623E+01
                       3.9908576996E-16 -1.0736019360E-16  5.6758137443E+00
                       5.6592962592E-16 -4.0422763079E-17  1.8516183659E+01
                      -2.0705069053E+00 -2.0845962770E+00  1.5951395318E+01
                      -3.7756515899E+00  2.3704278315E+00  1.1671272013E+01
                      -1.6502492490E-01 -4.4550241085E+00  1.1671272013E+01
                       3.9406765148E+00  2.0845962770E+00  1.1671272013E+01
                      -7.7005987986E-01  2.8354097172E+00  1.5951395318E+01
                       2.8405667852E+00 -7.5081344022E-01  1.5951395318E+01
            xcart7     1.3206159824E-17 -1.6023755728E-17 -1.0175220634E-01
                      -2.3262311252E-16 -3.3321444897E-16  1.2750777498E+01
                       5.9161337098E-17 -2.6228764268E-16  5.6719717920E+00
                      -2.5065128750E-17 -7.6301636186E-16  1.8524501497E+01
                      -2.0702053721E+00 -2.0851053088E+00  1.5969633155E+01
                      -3.7775671292E+00  2.3727275793E+00  1.1685456587E+01
                      -1.6605879533E-01 -4.4578328881E+00  1.1685456587E+01
                       3.9436259245E+00  2.0851053088E+00  1.1685456587E+01
                      -7.7065148089E-01  2.8354030977E+00  1.5969633155E+01
                       2.8408568530E+00 -7.5029778893E-01  1.5969633155E+01
            xcart8    -1.5263438616E-17 -1.3873497959E-17 -1.0162139104E-01
                       6.7914872806E-16 -6.4198076608E-16  1.2762762853E+01
                       4.6978957180E-16 -2.4564675981E-16  5.6694085592E+00
                       1.0817651066E-15 -7.1023793869E-16  1.8533792803E+01
                      -2.0700049048E+00 -2.0855678225E+00  1.5986886127E+01
                      -3.7792759840E+00  2.3747623751E+00  1.1698758046E+01
                      -1.6696655277E-01 -4.4603301976E+00  1.1698758046E+01
                       3.9462425368E+00  2.0855678225E+00  1.1698758046E+01
                      -7.7115226320E-01  2.8354607448E+00  1.5986886127E+01
                       2.8411571680E+00 -7.4989292229E-01  1.5986886127E+01
            xcart9     1.0915186809E-17 -7.5938764118E-18 -1.0081176840E-01
                      -3.6892835494E-16  7.6527520544E-18  1.2776841060E+01
                       1.0002010360E-16  2.8147340187E-17  5.6687838507E+00
                      -6.7024375679E-17  1.8290702481E-16  1.8546436679E+01
                      -2.0700564369E+00 -2.0856276793E+00  1.6005227928E+01
                      -3.7803841531E+00  2.3765620667E+00  1.1712676985E+01
                      -1.6797104693E-01 -4.4621897460E+00  1.1712676985E+01
                       3.9483552000E+00  2.0856276793E+00  1.1712676985E+01
                      -7.7117833462E-01  2.8355353013E+00  1.6005227928E+01
                       2.8412347715E+00 -7.4990762201E-01  1.6005227928E+01
            xcart10    3.0028744414E-17 -9.0630828132E-18 -9.9632814163E-02
                      -1.6969986775E-16 -1.9333363333E-16  1.2789461174E+01
                       2.1927220709E-16 -4.8780225948E-17  5.6684480773E+00
                       2.4788997004E-16  1.6333512583E-16  1.8557542065E+01
                      -2.0701994133E+00 -2.0855319762E+00  1.6020815680E+01
                      -3.7813784893E+00  2.3784757137E+00  1.1724451017E+01
                      -1.6913114573E-01 -4.4640076899E+00  1.1724451017E+01
                       3.9505096350E+00  2.0855319762E+00  1.1724451017E+01
                      -7.7102396513E-01  2.8356112709E+00  1.6020815680E+01
                       2.8412233784E+00 -7.5007929471E-01  1.6020815680E+01
            xcart11   -1.4400889434E-17  4.9721149168E-18 -9.8679732119E-02
                       2.5780130971E-16  2.0166021198E-16  1.2801756018E+01
                       2.2609463006E-16 -9.6707477732E-17  5.6687359364E+00
                       2.8223754723E-16 -2.9213428979E-17  1.8569171686E+01
                      -2.0707795153E+00 -2.0854771271E+00  1.6036132981E+01
                      -3.7820672970E+00  2.3797784618E+00  1.1735987731E+01
                      -1.6991495483E-01 -4.4652555889E+00  1.1735987731E+01
                       3.9519822518E+00  2.0854771271E+00  1.1735987731E+01
                      -7.7068641339E-01  2.8360862295E+00  1.6036132981E+01
                       2.8414659287E+00 -7.5060910238E-01  1.6036132981E+01
             xred1    -6.0279072957E-03 -6.0279072957E-03 -6.0279072957E-03
                       4.9397209270E-01  4.9397209270E-01  4.9397209270E-01
                       2.2397105333E-01  2.2397105333E-01  2.2397105333E-01
                       7.2397105333E-01  7.2397105333E-01  7.2397105333E-01
                       3.9172883634E-01  5.3475676732E-01  9.3606125031E-01
                       3.4756767316E-02  8.9172883634E-01  4.3606125031E-01
                       4.3606125031E-01  3.4756767316E-02  8.9172883634E-01
                       8.9172883634E-01  4.3606125031E-01  3.4756767316E-02
                       5.3475676732E-01  9.3606125031E-01  3.9172883634E-01
                       9.3606125031E-01  3.9172883634E-01  5.3475676732E-01
             xred2    -4.6642089156E-03 -4.6642089156E-03 -4.6642089156E-03
                       4.9533579108E-01  4.9533579108E-01  4.9533579108E-01
                       2.2337336195E-01  2.2337336195E-01  2.2337336195E-01
                       7.2337336195E-01  7.2337336195E-01  7.2337336195E-01
                       3.9049770438E-01  5.3534685657E-01  9.3593628602E-01
                       3.5346856570E-02  8.9049770438E-01  4.3593628602E-01
                       4.3593628602E-01  3.5346856570E-02  8.9049770438E-01
                       8.9049770438E-01  4.3593628602E-01  3.5346856570E-02
                       5.3534685657E-01  9.3593628602E-01  3.9049770438E-01
                       9.3593628602E-01  3.9049770438E-01  5.3534685657E-01
             xred3    -4.1583929770E-03 -4.1583929770E-03 -4.1583929770E-03
                       4.9584160702E-01  4.9584160702E-01  4.9584160702E-01
                       2.2264239232E-01  2.2264239232E-01  2.2264239232E-01
                       7.2264239232E-01  7.2264239232E-01  7.2264239232E-01
                       3.9057377315E-01  5.3545899688E-01  9.3597323063E-01
                       3.5458996876E-02  8.9057377315E-01  4.3597323063E-01
                       4.3597323063E-01  3.5458996876E-02  8.9057377315E-01
                       8.9057377315E-01  4.3597323063E-01  3.5458996876E-02
                       5.3545899688E-01  9.3597323063E-01  3.9057377315E-01
                       9.3597323063E-01  3.9057377315E-01  5.3545899688E-01
             xred4    -4.0149795796E-03 -4.0149795796E-03 -4.0149795796E-03
                       4.9598502042E-01  4.9598502042E-01  4.9598502042E-01
                       2.2200926610E-01  2.2200926610E-01  2.2200926610E-01
                       7.2200926610E-01  7.2200926610E-01  7.2200926610E-01
                       3.9087089759E-01  5.3556819019E-01  9.3605662570E-01
                       3.5568190186E-02  8.9087089759E-01  4.3605662570E-01
                       4.3605662570E-01  3.5568190186E-02  8.9087089759E-01
                       8.9087089759E-01  4.3605662570E-01  3.5568190186E-02
                       5.3556819019E-01  9.3605662570E-01  3.9087089759E-01
                       9.3605662570E-01  3.9087089759E-01  5.3556819019E-01
             xred5    -3.9510945816E-03 -3.9510945816E-03 -3.9510945816E-03
                       4.9604890542E-01  4.9604890542E-01  4.9604890542E-01
                       2.2147279182E-01  2.2147279182E-01  2.2147279182E-01
                       7.2147279182E-01  7.2147279182E-01  7.2147279182E-01
                       3.9120800700E-01  5.3563542518E-01  9.3612487058E-01
                       3.5635425182E-02  8.9120800700E-01  4.3612487058E-01
                       4.3612487058E-01  3.5635425182E-02  8.9120800700E-01
                       8.9120800700E-01  4.3612487058E-01  3.5635425182E-02
                       5.3563542518E-01  9.3612487058E-01  3.9120800700E-01
                       9.3612487058E-01  3.9120800700E-01  5.3563542518E-01
             xred6    -3.9514940911E-03 -3.9514940911E-03 -3.9514940911E-03
                       4.9604850591E-01  4.9604850591E-01  4.9604850591E-01
                       2.2101441711E-01  2.2101441711E-01  2.2101441711E-01
                       7.2101441711E-01  7.2101441711E-01  7.2101441711E-01
                       3.9151404117E-01  5.3573933311E-01  9.3617370270E-01
                       3.5739333109E-02  8.9151404117E-01  4.3617370270E-01
                       4.3617370270E-01  3.5739333109E-02  8.9151404117E-01
                       8.9151404117E-01  4.3617370270E-01  3.5739333109E-02
                       5.3573933311E-01  9.3617370270E-01  3.9151404117E-01
                       9.3617370270E-01  3.9151404117E-01  5.3573933311E-01
             xred7    -3.9584505416E-03 -3.9584505416E-03 -3.9584505416E-03
                       4.9604154946E-01  4.9604154946E-01  4.9604154946E-01
                       2.2065585228E-01  2.2065585228E-01  2.2065585228E-01
                       7.2065585228E-01  7.2065585228E-01  7.2065585228E-01
                       3.9177041307E-01  5.3583319403E-01  9.3618899116E-01
                       3.5833194028E-02  8.9177041307E-01  4.3618899116E-01
                       4.3618899116E-01  3.5833194028E-02  8.9177041307E-01
                       8.9177041307E-01  4.3618899116E-01  3.5833194028E-02
                       5.3583319403E-01  9.3618899116E-01  3.9177041307E-01
                       9.3618899116E-01  3.9177041307E-01  5.3583319403E-01
             xred8    -3.9497184285E-03 -3.9497184285E-03 -3.9497184285E-03
                       4.9605028157E-01  4.9605028157E-01  4.9605028157E-01
                       2.2035289260E-01  2.2035289260E-01  2.2035289260E-01
                       7.2035289260E-01  7.2035289260E-01  7.2035289260E-01
                       3.9198286838E-01  5.3591008705E-01  9.3619387040E-01
                       3.5910087049E-02  8.9198286838E-01  4.3619387040E-01
                       4.3619387040E-01  3.5910087049E-02  8.9198286838E-01
                       8.9198286838E-01  4.3619387040E-01  3.5910087049E-02
                       5.3591008705E-01  9.3619387040E-01  3.9198286838E-01
                       9.3619387040E-01  3.9198286838E-01  5.3591008705E-01
             xred9    -3.9142136281E-03 -3.9142136281E-03 -3.9142136281E-03
                       4.9608578637E-01  4.9608578637E-01  4.9608578637E-01
                       2.2010159484E-01  2.2010159484E-01  2.2010159484E-01
                       7.2010159484E-01  7.2010159484E-01  7.2010159484E-01
                       3.9213157496E-01  5.3600985832E-01  9.3616118551E-01
                       3.6009858319E-02  8.9213157496E-01  4.3616118551E-01
                       4.3616118551E-01  3.6009858319E-02  8.9213157496E-01
                       8.9213157496E-01  4.3616118551E-01  3.6009858319E-02
                       5.3600985832E-01  9.3616118551E-01  3.9213157496E-01
                       9.3616118551E-01  3.9213157496E-01  5.3600985832E-01
             xred10   -3.8650045634E-03 -3.8650045634E-03 -3.8650045634E-03
                       4.9613499544E-01  4.9613499544E-01  4.9613499544E-01
                       2.1989319352E-01  2.1989319352E-01  2.1989319352E-01
                       7.1989319352E-01  7.1989319352E-01  7.1989319352E-01
                       3.9225630583E-01  5.3611261221E-01  9.3609289300E-01
                       3.6112612207E-02  8.9225630583E-01  4.3609289300E-01
                       4.3609289300E-01  3.6112612207E-02  8.9225630583E-01
                       8.9225630583E-01  4.3609289300E-01  3.6112612207E-02
                       5.3611261221E-01  9.3609289300E-01  3.9225630583E-01
                       9.3609289300E-01  3.9225630583E-01  5.3611261221E-01
             xred11   -3.8246666249E-03 -3.8246666249E-03 -3.8246666249E-03
                       4.9617533338E-01  4.9617533338E-01  4.9617533338E-01
                       2.1971102552E-01  2.1971102552E-01  2.1971102552E-01
                       7.1971102552E-01  7.1971102552E-01  7.1971102552E-01
                       3.9231749840E-01  5.3622635087E-01  9.3605979183E-01
                       3.6226350875E-02  8.9231749840E-01  4.3605979183E-01
                       4.3605979183E-01  3.6226350875E-02  8.9231749840E-01
                       8.9231749840E-01  4.3605979183E-01  3.6226350875E-02
                       5.3622635087E-01  9.3605979183E-01  3.9231749840E-01
                       9.3605979183E-01  3.9231749840E-01  5.3622635087E-01
            znucl       83.00000   26.00000    8.00000

- Timing analysis has been suppressed with timopt=0

 Suggested references for the acknowledgment of ABINIT usage.

 Calculation completed.
.Delivered   0 WARNINGs and   0 COMMENTs to log file.